; vmt-chc-benchmarks/./cav12/array_max-1_000.smt2
(set-logic HORN)

(declare-fun |state| ( Bool Bool Bool Bool Real Real Real Real Real Real Real Real Real Real Real Real Real Real Real Real Real Real Real Real Real Real Real Real Real ) Bool)

(assert
  (forall ( (A Bool) (B Bool) (C Bool) (D Real) (E Real) (F Real) (G Real) (H Real) (I Real) (J Real) (K Real) (L Real) (M Real) (N Real) (O Real) (P Real) (Q Real) (R Real) (S Real) (T Real) (U Real) (V Real) (W Real) (X Real) (Y Real) (Z Real) (A1 Real) (B1 Real) (C1 Bool) ) 
    (=>
      (and
        (and (not B) (not C) (not C1) (= A true))
      )
      (state B A C C1 E F G H I K L M N O Q R S T U V W X Y Z A1 B1 D J P)
    )
  )
)
(assert
  (forall ( (A Bool) (B Bool) (C Bool) (D Bool) (E Bool) (F Bool) (G Bool) (H Real) (I Real) (J Real) (K Real) (L Real) (M Real) (N Real) (O Real) (P Real) (Q Real) (R Real) (S Real) (T Real) (U Real) (V Real) (W Real) (X Real) (Y Real) (Z Real) (A1 Real) (B1 Real) (C1 Real) (D1 Real) (E1 Real) (F1 Real) (G1 Real) (H1 Real) (I1 Real) (J1 Real) (K1 Real) (L1 Real) (M1 Real) (N1 Real) (O1 Real) (P1 Real) (Q1 Real) (R1 Real) (S1 Real) (T1 Real) (U1 Real) (V1 Real) (W1 Real) (X1 Real) (Y1 Real) (Z1 Real) (A2 Real) (B2 Real) (C2 Real) (D2 Real) (E2 Real) (F2 Real) (G2 Real) (H2 Real) (I2 Real) (J2 Real) (K2 Real) (L2 Bool) ) 
    (=>
      (and
        (state B
       A
       E
       L2
       K
       M
       O
       Q
       S
       W
       Y
       A1
       C1
       E1
       I1
       K1
       M1
       O1
       Q1
       S1
       U1
       W1
       Y1
       A2
       C2
       E2
       H
       T
       F1)
        (let ((a!1 (and (= L1 H)
                (not (= L1 0.0))
                (= L1 3.0)
                (not (= L1 2.0))
                (not (= L1 1.0))
                (= E1 G2)
                (= H1 H2)
                (= (+ H1 (* (- 1.0) H)) 1.0)))
      (a!2 (and (= C1 H2)
                (= L1 H)
                (not (= L1 0.0))
                (= L1 4.0)
                (not (= L1 3.0))
                (not (= L1 2.0))
                (not (= L1 1.0))
                (= H1 G2)
                (= (+ H1 (* (- 1.0) H)) 1.0)))
      (a!3 (and (= C1 H2)
                (= L1 H)
                (not (= L1 0.0))
                (= L1 2.0)
                (not (= L1 1.0))
                (= E1 G2)
                (= H1 I2)
                (= (+ H1 (* (- 1.0) H)) 1.0)))
      (a!5 (and (= A1 I2)
                (= C1 H2)
                (= L1 H)
                (not (= L1 0.0))
                (= L1 1.0)
                (= E1 G2)
                (= H1 J2)
                (= (+ H1 (* (- 1.0) H)) 1.0)))
      (a!6 (and (= W J2)
                (= A1 I2)
                (= C1 H2)
                (= L1 H)
                (= L1 0.0)
                (= E1 G2)
                (= H1 F2)
                (= (+ H1 (* (- 1.0) H)) 1.0)))
      (a!7 (or (= F1 0.0) (= F1 4.0) (= F1 3.0) (= F1 2.0) (= F1 1.0)))
      (a!17 (and (= L1 H)
                 (not (= L1 0.0))
                 (= L1 3.0)
                 (not (= L1 2.0))
                 (not (= L1 1.0))
                 (= E1 D1)
                 (= B1 H1)
                 (= (+ H1 (* (- 1.0) H)) 1.0)))
      (a!18 (and (= C1 B1)
                 (= L1 H)
                 (not (= L1 0.0))
                 (= L1 4.0)
                 (not (= L1 3.0))
                 (not (= L1 2.0))
                 (not (= L1 1.0))
                 (= D1 H1)
                 (= (+ H1 (* (- 1.0) H)) 1.0)))
      (a!19 (and (= C1 B1)
                 (= L1 H)
                 (not (= L1 0.0))
                 (= L1 2.0)
                 (not (= L1 1.0))
                 (= E1 D1)
                 (= Z H1)
                 (= (+ H1 (* (- 1.0) H)) 1.0)))
      (a!21 (and (= A1 Z)
                 (= C1 B1)
                 (= L1 H)
                 (not (= L1 0.0))
                 (= L1 1.0)
                 (= E1 D1)
                 (= V H1)
                 (= (+ H1 (* (- 1.0) H)) 1.0)))
      (a!22 (and (= W V)
                 (= A1 Z)
                 (= C1 B1)
                 (= L1 H)
                 (= L1 0.0)
                 (= E1 D1)
                 (= U H1)
                 (= (+ H1 (* (- 1.0) H)) 1.0)))
      (a!29 (or (and (= O X1) (= X1 0.0) (= P T))
                (and (= O X1) (not (= X1 0.0)) (= X1 1.0) (= P W))
                (and (= O X1)
                     (not (= X1 0.0))
                     (= X1 2.0)
                     (not (= X1 1.0))
                     (= P A1))
                (and (= O X1)
                     (not (= X1 0.0))
                     (= X1 3.0)
                     (not (= X1 2.0))
                     (not (= X1 1.0))
                     (= P C1))
                (and (= O X1)
                     (not (= X1 0.0))
                     (= X1 4.0)
                     (not (= X1 3.0))
                     (not (= X1 2.0))
                     (not (= X1 1.0))
                     (= P E1))))
      (a!34 (and A
                 (not B)
                 E
                 (not G)
                 F
                 (not D)
                 C
                 (not L2)
                 (= K J)
                 (= M L)
                 (= O N)
                 (= Q P)
                 (= S R)
                 (= W V)
                 (= Y X)
                 (= A1 Z)
                 (= C1 B1)
                 (= L1 H)
                 (not (= L1 0.0))
                 (not (= L1 4.0))
                 (not (= L1 3.0))
                 (not (= L1 2.0))
                 (not (= L1 1.0))
                 (= E1 D1)
                 (= G1 F1)
                 (= K1 J1)
                 (= O1 N1)
                 (= Q1 P1)
                 (= S1 R1)
                 (= U1 T1)
                 (= U T)
                 (= W1 V1)
                 (= Y1 X1)
                 (= A2 Z1)
                 (= C2 B2)
                 (= E2 D2)
                 (= I H)
                 (= (+ H1 (* (- 1.0) H)) 1.0))))
(let ((a!4 (and (or (and (or a!1 a!2) (= A1 I2)) a!3) (= W J2)))
      (a!20 (and (or (and (or a!17 a!18) (= A1 Z)) a!19) (= W V)))
      (a!30 (or (and a!29 (not (<= R W1)) (= O T1) (= R V1) (= P R))
                (and a!29 (<= R W1) (= U1 T1) (= W1 V1) (= P R)))))
(let ((a!8 (and (or (and (or a!4 a!5) (= T F2)) a!6)
                a!7
                (<= 5.0 I)
                (= N1 0.0)
                (= L N1)
                (= L F1)
                (= J F2)
                (= (+ I (* (- 1.0) H)) 1.0)))
      (a!9 (and (or (and (or a!4 a!5) (= T F2)) a!6)
                a!7
                (<= 5.0 I)
                (not (= N1 0.0))
                (= N1 1.0)
                (= L N1)
                (= L F1)
                (= J J2)
                (= (+ I (* (- 1.0) H)) 1.0)))
      (a!10 (and (or (and (or a!4 a!5) (= T F2)) a!6)
                 a!7
                 (<= 5.0 I)
                 (not (= N1 0.0))
                 (= N1 2.0)
                 (not (= N1 1.0))
                 (= L N1)
                 (= L F1)
                 (= J I2)
                 (= (+ I (* (- 1.0) H)) 1.0)))
      (a!11 (and (or (and (or a!4 a!5) (= T F2)) a!6)
                 a!7
                 (<= 5.0 I)
                 (not (= N1 0.0))
                 (= N1 3.0)
                 (not (= N1 2.0))
                 (not (= N1 1.0))
                 (= L N1)
                 (= L F1)
                 (= J H2)
                 (= (+ I (* (- 1.0) H)) 1.0)))
      (a!12 (and (or (and (or a!4 a!5) (= T F2)) a!6)
                 a!7
                 (<= 5.0 I)
                 (not (= N1 0.0))
                 (= N1 4.0)
                 (not (= N1 3.0))
                 (not (= N1 2.0))
                 (not (= N1 1.0))
                 (= L N1)
                 (= L F1)
                 (= J G2)
                 (= (+ I (* (- 1.0) H)) 1.0)))
      (a!23 (and A
                 (not B)
                 E
                 (not G)
                 (not F)
                 D
                 C
                 (not L2)
                 (or (and (or a!20 a!21) (= U T)) a!22)
                 (not (<= 5.0 I))
                 (= K J)
                 (= M L)
                 (= O N)
                 (= Q P)
                 (= S R)
                 (= Y X)
                 (= G1 F1)
                 (= K1 J1)
                 (= O1 N1)
                 (= Q1 P1)
                 (= S1 R1)
                 (= U1 T1)
                 (= W1 V1)
                 (= Y1 X1)
                 (= A2 Z1)
                 (= C2 B2)
                 (= E2 D2)
                 (= (+ I (* (- 1.0) H)) 1.0)))
      (a!24 (and (or (and (or a!20 a!21) (= U T)) a!22)
                 a!7
                 (<= 5.0 I)
                 (= N1 0.0)
                 (= U J)
                 (= L N1)
                 (= L F1)
                 (= (+ I (* (- 1.0) H)) 1.0)))
      (a!25 (and (or (and (or a!20 a!21) (= U T)) a!22)
                 a!7
                 (<= 5.0 I)
                 (not (= N1 0.0))
                 (= N1 1.0)
                 (= L N1)
                 (= L F1)
                 (= J V)
                 (= (+ I (* (- 1.0) H)) 1.0)))
      (a!26 (and (or (and (or a!20 a!21) (= U T)) a!22)
                 a!7
                 (<= 5.0 I)
                 (not (= N1 0.0))
                 (= N1 2.0)
                 (not (= N1 1.0))
                 (= L N1)
                 (= L F1)
                 (= J Z)
                 (= (+ I (* (- 1.0) H)) 1.0)))
      (a!27 (and (or (and (or a!20 a!21) (= U T)) a!22)
                 a!7
                 (<= 5.0 I)
                 (not (= N1 0.0))
                 (= N1 3.0)
                 (not (= N1 2.0))
                 (not (= N1 1.0))
                 (= L N1)
                 (= L F1)
                 (= J B1)
                 (= (+ I (* (- 1.0) H)) 1.0)))
      (a!28 (and (or (and (or a!20 a!21) (= U T)) a!22)
                 a!7
                 (<= 5.0 I)
                 (not (= N1 0.0))
                 (= N1 4.0)
                 (not (= N1 3.0))
                 (not (= N1 2.0))
                 (not (= N1 1.0))
                 (= L N1)
                 (= L F1)
                 (= J D1)
                 (= (+ I (* (- 1.0) H)) 1.0)))
      (a!31 (and (not A)
                 B
                 E
                 G
                 (not F)
                 D
                 (not C)
                 (not L2)
                 a!30
                 (not (<= 5.0 N))
                 (= K J)
                 (= M L)
                 (= W V)
                 (= Y X)
                 (= A1 Z)
                 (= C1 B1)
                 (= E1 D1)
                 (= I1 H1)
                 (= G1 F1)
                 (= K1 J1)
                 (= M1 L1)
                 (= O1 N1)
                 (= Q1 P1)
                 (= S1 R1)
                 (= U T)
                 (= A2 Z1)
                 (= C2 B2)
                 (= E2 D2)
                 (= I H)
                 (= (+ O (* (- 1.0) N)) (- 1.0))))
      (a!32 (and (not A)
                 B
                 E
                 (not G)
                 (not F)
                 D
                 (not C)
                 (not L2)
                 a!30
                 (<= 5.0 N)
                 (= K J)
                 (= M L)
                 (not (= T1 F1))
                 (= W V)
                 (= Y X)
                 (= A1 Z)
                 (= C1 B1)
                 (= E1 D1)
                 (= I1 H1)
                 (= G1 F1)
                 (= K1 J1)
                 (= M1 L1)
                 (= O1 N1)
                 (= Q1 P1)
                 (= S1 R1)
                 (= U T)
                 (= A2 Z1)
                 (= C2 B2)
                 (= E2 D2)
                 (= I H)
                 (= (+ O (* (- 1.0) N)) (- 1.0))))
      (a!33 (and A
                 (not B)
                 E
                 (not G)
                 F
                 D
                 C
                 (not L2)
                 (or (and (or a!20 a!21) (= U T)) a!22)
                 a!7
                 (<= 5.0 I)
                 (= K J)
                 (= O N)
                 (= Q P)
                 (= S R)
                 (= Y X)
                 (not (= N1 0.0))
                 (not (= N1 4.0))
                 (not (= N1 3.0))
                 (not (= N1 2.0))
                 (not (= N1 1.0))
                 (= G1 F1)
                 (= K1 J1)
                 (= Q1 P1)
                 (= S1 R1)
                 (= U1 T1)
                 (= W1 V1)
                 (= Y1 X1)
                 (= A2 Z1)
                 (= C2 B2)
                 (= L N1)
                 (= L F1)
                 (= E2 D2)
                 (= (+ I (* (- 1.0) H)) 1.0))))
(let ((a!13 (or (and (or a!8 a!9 a!10 a!11 a!12)
                     (= R1 D2)
                     (not (= P1 0.0))
                     (= P1 3.0)
                     (not (= P1 2.0))
                     (not (= P1 1.0))
                     (= J1 G2)
                     (= J1 R1)
                     (= B1 D2)
                     (= L P1)
                     (= J B2))
                (and (or a!8 a!9 a!10 a!11 a!12)
                     (= R1 D2)
                     (not (= P1 0.0))
                     (= P1 4.0)
                     (not (= P1 3.0))
                     (not (= P1 2.0))
                     (not (= P1 1.0))
                     (= J1 G2)
                     (= J1 R1)
                     (= B1 H2)
                     (= L P1)
                     (= J B2)))))
(let ((a!14 (or (and a!13 (= Z I2))
                (and (or a!8 a!9 a!10 a!11 a!12)
                     (= R1 D2)
                     (not (= P1 0.0))
                     (= P1 2.0)
                     (not (= P1 1.0))
                     (= J1 G2)
                     (= J1 R1)
                     (= B1 H2)
                     (= Z D2)
                     (= L P1)
                     (= J B2)))))
(let ((a!15 (or (and a!14 (= V J2))
                (and (or a!8 a!9 a!10 a!11 a!12)
                     (= R1 D2)
                     (not (= P1 0.0))
                     (= P1 1.0)
                     (= J1 G2)
                     (= J1 R1)
                     (= B1 H2)
                     (= Z I2)
                     (= V D2)
                     (= L P1)
                     (= J B2)))))
(let ((a!16 (and A
                 (not B)
                 E
                 G
                 (not F)
                 D
                 (not C)
                 (not L2)
                 (or (and a!15 (= U F2))
                     (and (or a!8 a!9 a!10 a!11 a!12)
                          (= R1 D2)
                          (= P1 0.0)
                          (= J1 G2)
                          (= J1 R1)
                          (= B1 H2)
                          (= Z I2)
                          (= V J2)
                          (= U D2)
                          (= L P1)
                          (= J B2)))
                 (= Q P)
                 (= S R)
                 (= V1 0.0)
                 (= T1 0.0)
                 (= G1 F1)
                 (= X B2)
                 (= X D1)
                 (= Y1 X1)
                 (= A2 Z1)
                 (= N 0.0))))
  (or (and (not A) (not B) E (not G) F D (not C) L2)
      a!16
      a!23
      (and A
           (not B)
           E
           G
           (not F)
           (not D)
           (not C)
           (not L2)
           (or a!24 a!25 a!26 a!27 a!28)
           (= O N)
           (= Q P)
           (= S R)
           (= R1 D2)
           (= Y X)
           (not (= P1 0.0))
           (not (= P1 4.0))
           (not (= P1 3.0))
           (not (= P1 2.0))
           (not (= P1 1.0))
           (= J1 R1)
           (= G1 F1)
           (= D1 J1)
           (= U1 T1)
           (= W1 V1)
           (= Y1 X1)
           (= A2 Z1)
           (= L P1)
           (= J B2))
      a!31
      a!32
      (and A
           (not B)
           (not E)
           (not G)
           (not F)
           D
           C
           (not L2)
           (= K J)
           (= M L)
           (= O N)
           (= Q P)
           (= S R)
           (= W V)
           (= Y X)
           (= A1 Z)
           (= C1 B1)
           (= E1 D1)
           (= I1 H1)
           (= G1 K2)
           (= K1 J1)
           (= M1 L1)
           (= O1 N1)
           (= Q1 P1)
           (= S1 R1)
           (= U1 T1)
           (= U 0.0)
           (= W1 V1)
           (= Y1 X1)
           (= A2 Z1)
           (= C2 B2)
           (= E2 D2)
           (= I 0.0))
      (and (not A)
           (not B)
           (not E)
           (not G)
           F
           D
           (not C)
           (not L2)
           (= K J)
           (= M L)
           (= O N)
           (= Q P)
           (= S R)
           (= W V)
           (= Y X)
           (= A1 Z)
           (= C1 B1)
           (= E1 D1)
           (= I1 H1)
           (= G1 F1)
           (= K1 J1)
           (= M1 L1)
           (= O1 N1)
           (= Q1 P1)
           (= S1 R1)
           (= U1 T1)
           (= U T)
           (= W1 V1)
           (= Y1 X1)
           (= A2 Z1)
           (= C2 B2)
           (= E2 D2)
           (= I H))
      (and (not A)
           (not B)
           E
           (not G)
           F
           D
           (not C)
           (not L2)
           (= K J)
           (= M L)
           (= O N)
           (= Q P)
           (= S R)
           (= W V)
           (= Y X)
           (= A1 Z)
           (= C1 B1)
           (= E1 D1)
           (= I1 H1)
           (= G1 F1)
           (= K1 J1)
           (= M1 L1)
           (= O1 N1)
           (= Q1 P1)
           (= S1 R1)
           (= U1 T1)
           (= U T)
           (= W1 V1)
           (= Y1 X1)
           (= A2 Z1)
           (= C2 B2)
           (= E2 D2)
           (= I H))
      (and (not A)
           B
           (not E)
           (not G)
           F
           D
           (not C)
           (not L2)
           (= K J)
           (= M L)
           (= O N)
           (= Q P)
           (= S R)
           (= W V)
           (= Y X)
           (= A1 Z)
           (= C1 B1)
           (= E1 D1)
           (= I1 H1)
           (= G1 F1)
           (= K1 J1)
           (= M1 L1)
           (= O1 N1)
           (= Q1 P1)
           (= S1 R1)
           (= U1 T1)
           (= U T)
           (= W1 V1)
           (= Y1 X1)
           (= A2 Z1)
           (= C2 B2)
           (= E2 D2)
           (= I H))
      (and A
           (not B)
           (not E)
           (not G)
           F
           D
           (not C)
           L2
           (= K J)
           (= M L)
           (= O N)
           (= Q P)
           (= S R)
           (= W V)
           (= Y X)
           (= A1 Z)
           (= C1 B1)
           (= E1 D1)
           (= I1 H1)
           (= G1 F1)
           (= K1 J1)
           (= M1 L1)
           (= O1 N1)
           (= Q1 P1)
           (= S1 R1)
           (= U1 T1)
           (= U T)
           (= W1 V1)
           (= Y1 X1)
           (= A2 Z1)
           (= C2 B2)
           (= E2 D2)
           (= I H))
      (and A
           (not B)
           E
           (not G)
           F
           D
           (not C)
           L2
           (= K J)
           (= M L)
           (= O N)
           (= Q P)
           (= S R)
           (= W V)
           (= Y X)
           (= A1 Z)
           (= C1 B1)
           (= E1 D1)
           (= I1 H1)
           (= G1 F1)
           (= K1 J1)
           (= M1 L1)
           (= O1 N1)
           (= Q1 P1)
           (= S1 R1)
           (= U1 T1)
           (= U T)
           (= W1 V1)
           (= Y1 X1)
           (= A2 Z1)
           (= C2 B2)
           (= E2 D2)
           (= I H))
      a!33
      (and (not A)
           B
           E
           (not G)
           (not F)
           (not D)
           (not C)
           (not L2)
           (= K J)
           (= M L)
           (= O X1)
           (= O N)
           (= Q P)
           (not (= X1 0.0))
           (not (= X1 4.0))
           (not (= X1 3.0))
           (not (= X1 2.0))
           (not (= X1 1.0))
           (= S R)
           (= W V)
           (= Y X)
           (= A1 Z)
           (= C1 B1)
           (= E1 D1)
           (= I1 H1)
           (= G1 F1)
           (= K1 J1)
           (= M1 L1)
           (= O1 N1)
           (= Q1 P1)
           (= S1 R1)
           (= U1 T1)
           (= U T)
           (= W1 V1)
           (= A2 Z1)
           (= C2 B2)
           (= E2 D2)
           (= I H))
      a!34))))))))
      )
      (state G C D F J L N P R V X Z B1 D1 H1 J1 L1 N1 P1 R1 T1 V1 X1 Z1 B2 D2 I U G1)
    )
  )
)
(assert
  (forall ( (A Bool) (B Bool) (C Bool) (D Real) (E Real) (F Real) (G Real) (H Real) (I Real) (J Real) (K Real) (L Real) (M Real) (N Real) (O Real) (P Real) (Q Real) (R Real) (S Real) (T Real) (U Real) (V Real) (W Real) (X Real) (Y Real) (Z Real) (A1 Real) (B1 Real) (C1 Bool) ) 
    (=>
      (and
        (state B A C C1 E F G H I K L M N O Q R S T U V W X Y Z A1 B1 D J P)
        (and (not B) (= C true) (= C1 true) (not A))
      )
      false
    )
  )
)

(check-sat)
(exit)
